(set-option :produce-models true); benchmark generated from python API
(set-info :status unknown)
(declare-fun l_0_0_7 () Real)
(declare-fun l_0_0_1 () Real)
(declare-fun _a_0_ () Real)
(declare-fun l_0_0_9 () Real)
(declare-fun l_0_0_8 () Real)
(declare-fun l_0_0_3 () Real)
(declare-fun l_0_0_2 () Real)
(declare-fun _a_1_ () Real)
(declare-fun l_0_0_6 () Real)
(declare-fun l_0_0_5 () Real)
(declare-fun l_0_0_4 () Real)
(declare-fun l_0_0_12 () Real)
(declare-fun l_0_0_11 () Real)
(declare-fun l_0_0_10 () Real)
(declare-fun _a_2_ () Real)
(declare-fun l_0_1_7 () Real)
(declare-fun l_0_1_13 () Real)
(declare-fun l_0_1_1 () Real)
(declare-fun l_0_1_16 () Real)
(declare-fun l_0_1_10 () Real)
(declare-fun l_0_1_4 () Real)
(declare-fun l_0_1_9 () Real)
(declare-fun l_0_1_8 () Real)
(declare-fun l_0_1_15 () Real)
(declare-fun l_0_1_14 () Real)
(declare-fun l_0_1_3 () Real)
(declare-fun l_0_1_2 () Real)
(declare-fun l_0_1_17 () Real)
(declare-fun l_0_1_11 () Real)
(declare-fun l_0_1_5 () Real)
(declare-fun l_0_1_18 () Real)
(declare-fun l_0_1_12 () Real)
(declare-fun l_0_1_6 () Real)
(declare-fun l_0_2_7 () Real)
(declare-fun l_0_2_13 () Real)
(declare-fun l_0_2_1 () Real)
(declare-fun l_0_2_9 () Real)
(declare-fun l_0_2_8 () Real)
(declare-fun l_0_2_3 () Real)
(declare-fun l_0_2_2 () Real)
(declare-fun l_0_2_10 () Real)
(declare-fun l_0_2_4 () Real)
(declare-fun l_0_2_15 () Real)
(declare-fun l_0_2_14 () Real)
(declare-fun l_0_2_18 () Real)
(declare-fun l_0_2_17 () Real)
(declare-fun l_0_2_16 () Real)
(declare-fun l_0_2_12 () Real)
(declare-fun l_0_2_11 () Real)
(declare-fun l_0_2_6 () Real)
(declare-fun l_0_2_5 () Real)
(assert
 (let ((?x60 (* l_0_0_7 l_0_0_7)))
 (= (- (- _a_0_ (* (* 1.0 l_0_0_1) l_0_0_1)) ?x60) 0.0)))
(assert
 (let ((?x99 (* l_0_0_9 l_0_0_9)))
 (let ((?x97 (* l_0_0_8 l_0_0_8)))
 (let ((?x82 (* l_0_0_1 l_0_0_1)))
 (let ((?x90 (+ _a_1_ ?x82)))
 (let ((?x96 (- (- ?x90 (* (* 1.0 l_0_0_2) l_0_0_2)) (* (* 1.0 l_0_0_3) l_0_0_3))))
 (= (- (- ?x96 ?x97) ?x99) 0.0)))))))
(assert
 (let ((?x122 (* l_0_0_12 l_0_0_12)))
 (let ((?x120 (* l_0_0_11 l_0_0_11)))
 (let ((?x121 (- (- (+ _a_2_ (* l_0_0_1 l_0_0_1)) (* l_0_0_10 l_0_0_10)) ?x120)))
 (let ((?x129 (- (- (- ?x121 ?x122) (* (* 1.0 l_0_0_4) l_0_0_4)) (* (* 1.0 l_0_0_5) l_0_0_5))))
 (= (- ?x129 (* (* 1.0 l_0_0_6) l_0_0_6)) 0.0))))))
(assert
 (let ((?x162 (- (* (* (- 2.0) l_0_0_1) l_0_0_2) (* (* 2.0 l_0_0_7) l_0_0_8))))
 (= ?x162 0.0)))
(assert
 (let ((?x178 (- (* (* (- 2.0) l_0_0_1) l_0_0_4) (* (* 2.0 l_0_0_10) l_0_0_7))))
 (= ?x178 0.0)))
(assert
 (let ((?x200 (* (* 2.0 l_0_0_3) l_0_0_5)))
 (let ((?x197 (* (* 2.0 l_0_0_2) l_0_0_4)))
 (let ((?x195 (- (* (* (- 2.0) l_0_0_10) l_0_0_8) (* (* 2.0 l_0_0_11) l_0_0_9))))
 (= (- (- ?x195 ?x197) ?x200) 0.0)))))
(assert
 (= (* (* 2.0 l_0_0_1) l_0_0_2) 0.0))
(assert
 (= (* (* 2.0 l_0_0_1) l_0_0_4) 0.0))
(assert
 (let ((?x106 (* l_0_0_3 l_0_0_3)))
 (let ((?x102 (* l_0_0_2 l_0_0_2)))
 (let ((?x233 (+ ?x102 ?x106)))
 (= ?x233 0.0)))))
(assert
 (let ((?x200 (* (* 2.0 l_0_0_3) l_0_0_5)))
 (let ((?x197 (* (* 2.0 l_0_0_2) l_0_0_4)))
 (= (+ ?x197 ?x200) 0.0))))
(assert
 (let ((?x151 (* l_0_0_6 l_0_0_6)))
 (let ((?x147 (* l_0_0_5 l_0_0_5)))
 (let ((?x143 (* l_0_0_4 l_0_0_4)))
 (let ((?x106 (* l_0_0_3 l_0_0_3)))
 (let ((?x102 (* l_0_0_2 l_0_0_2)))
 (let ((?x233 (+ ?x102 ?x106)))
 (= (+ (+ (+ ?x233 ?x143) ?x147) ?x151) 0.0))))))))
(assert
 (= (* (* 2.0 l_0_0_1) l_0_0_2) 0.0))
(assert
 (= (* (* 2.0 l_0_0_1) l_0_0_4) 0.0))
(assert
 (let ((?x200 (* (* 2.0 l_0_0_3) l_0_0_5)))
 (let ((?x197 (* (* 2.0 l_0_0_2) l_0_0_4)))
 (= (+ ?x197 ?x200) 0.0))))
(assert
 (let ((?x151 (* l_0_0_6 l_0_0_6)))
 (= (+ (+ (* l_0_0_4 l_0_0_4) (* l_0_0_5 l_0_0_5)) ?x151) 0.0)))
(assert
 (>= l_0_0_1 0.0))
(assert
 (>= l_0_0_3 0.0))
(assert
 (>= l_0_0_6 0.0))
(assert
 (>= l_0_0_7 0.0))
(assert
 (>= l_0_0_9 0.0))
(assert
 (>= l_0_0_12 0.0))
(assert
 (let ((?x264 (+ (- (* (* (- _a_0_) l_0_1_1) l_0_1_1) (* l_0_1_13 l_0_1_13)) (* 3.0 (* l_0_1_7 l_0_1_7)))))
 (= (+ ?x264 1.0) 0.0)))
(assert
 (let ((?x283 (+ (* (* (* (- 2.0) _a_0_) l_0_1_1) l_0_1_4) (* (* 6.0 l_0_1_10) l_0_1_7))))
 (= (+ (- ?x283 (* (* 2.0 l_0_1_13) l_0_1_16)) 1.0) 0.0)))
(assert
 (let ((?x316 (* l_0_1_9 l_0_1_9)))
 (let ((?x317 (* 3.0 ?x316)))
 (let ((?x313 (* l_0_1_8 l_0_1_8)))
 (let ((?x314 (* 3.0 ?x313)))
 (let ((?x261 (* l_0_1_7 l_0_1_7)))
 (let ((?x310 (* l_0_1_15 l_0_1_15)))
 (let ((?x308 (* l_0_1_14 l_0_1_14)))
 (let ((?x307 (- (* (- _a_0_) (+ (* l_0_1_2 l_0_1_2) (* l_0_1_3 l_0_1_3))) (* (* _a_1_ l_0_1_1) l_0_1_1))))
 (= (- (+ (+ (- (- (- ?x307 ?x308) ?x310) ?x261) ?x314) ?x317) (/ 1.0 5.0)) 0.0))))))))))
(assert
 (let ((?x351 (- (* (* (* (- 2.0) _a_0_) l_0_1_1) l_0_1_2) (* (* 2.0 l_0_1_13) l_0_1_14))))
 (= (+ ?x351 (* (* 6.0 l_0_1_7) l_0_1_8)) 0.0)))
(assert
 (let ((?x376 (+ (* (* 2.0 l_0_1_2) l_0_1_4) (* (* 2.0 l_0_1_3) l_0_1_5))))
 (let ((?x256 (- _a_0_)))
 (let ((?x382 (+ (+ (* ?x256 ?x376) (* (* 6.0 l_0_1_10) l_0_1_8)) (* (* 6.0 l_0_1_11) l_0_1_9))))
 (let ((?x388 (- (- ?x382 (* (* 2.0 l_0_1_14) l_0_1_16)) (* (* 2.0 l_0_1_15) l_0_1_17))))
 (= ?x388 0.0))))))
(assert
 (let ((?x261 (* l_0_1_7 l_0_1_7)))
 (let ((?x439 (* l_0_1_18 l_0_1_18)))
 (let ((?x437 (* l_0_1_17 l_0_1_17)))
 (let ((?x435 (* l_0_1_16 l_0_1_16)))
 (let ((?x432 (* l_0_1_12 l_0_1_12)))
 (let ((?x433 (* 3.0 ?x432)))
 (let ((?x429 (* l_0_1_11 l_0_1_11)))
 (let ((?x430 (* 3.0 ?x429)))
 (let ((?x426 (* l_0_1_10 l_0_1_10)))
 (let ((?x427 (* 3.0 ?x426)))
 (let ((?x420 (* l_0_1_6 l_0_1_6)))
 (let ((?x421 (+ (+ (* l_0_1_4 l_0_1_4) (* l_0_1_5 l_0_1_5)) ?x420)))
 (let ((?x256 (- _a_0_)))
 (let ((?x431 (+ (+ (- (* ?x256 ?x421) (* (* _a_2_ l_0_1_1) l_0_1_1)) ?x427) ?x430)))
 (= (- (- (- (- (+ ?x431 ?x433) ?x435) ?x437) ?x439) ?x261) 0.0))))))))))))))))
(assert
 (let ((?x475 (* (* 2.0 l_0_1_7) l_0_1_8)))
 (= (- (* (* (* (- 2.0) _a_1_) l_0_1_1) l_0_1_2) ?x475) 0.0)))
(assert
 (let ((?x489 (* 2.0 l_0_1_10)))
 (let ((?x490 (* ?x489 l_0_1_7)))
 (= (- (* (* (* (- 2.0) _a_1_) l_0_1_1) l_0_1_4) ?x490) 0.0))))
(assert
 (let ((?x316 (* l_0_1_9 l_0_1_9)))
 (let ((?x313 (* l_0_1_8 l_0_1_8)))
 (let ((?x506 (- (* (- _a_1_) (+ (* l_0_1_2 l_0_1_2) (* l_0_1_3 l_0_1_3))) ?x313)))
 (= (- ?x506 ?x316) 0.0)))))
(assert
 (let ((?x527 (* (* 2.0 l_0_1_11) l_0_1_9)))
 (let ((?x489 (* 2.0 l_0_1_10)))
 (let ((?x524 (* ?x489 l_0_1_8)))
 (let ((?x376 (+ (* (* 2.0 l_0_1_2) l_0_1_4) (* (* 2.0 l_0_1_3) l_0_1_5))))
 (let ((?x504 (- _a_1_)))
 (= (- (- (* ?x504 ?x376) ?x524) ?x527) 0.0)))))))
(assert
 (let ((?x316 (* l_0_1_9 l_0_1_9)))
 (let ((?x313 (* l_0_1_8 l_0_1_8)))
 (let ((?x432 (* l_0_1_12 l_0_1_12)))
 (let ((?x429 (* l_0_1_11 l_0_1_11)))
 (let ((?x426 (* l_0_1_10 l_0_1_10)))
 (let ((?x420 (* l_0_1_6 l_0_1_6)))
 (let ((?x421 (+ (+ (* l_0_1_4 l_0_1_4) (* l_0_1_5 l_0_1_5)) ?x420)))
 (let ((?x504 (- _a_1_)))
 (let ((?x550 (- (* ?x504 ?x421) (* _a_2_ (+ (* l_0_1_2 l_0_1_2) (* l_0_1_3 l_0_1_3))))))
 (= (- (- (- (- (- ?x550 ?x426) ?x429) ?x432) ?x313) ?x316) 0.0)))))))))))
(assert
 (let ((?x475 (* (* 2.0 l_0_1_7) l_0_1_8)))
 (= (- (* (* (* (- 2.0) _a_2_) l_0_1_1) l_0_1_2) ?x475) 0.0)))
(assert
 (let ((?x489 (* 2.0 l_0_1_10)))
 (let ((?x490 (* ?x489 l_0_1_7)))
 (= (- (* (* (* (- 2.0) _a_2_) l_0_1_1) l_0_1_4) ?x490) 0.0))))
(assert
 (let ((?x527 (* (* 2.0 l_0_1_11) l_0_1_9)))
 (let ((?x489 (* 2.0 l_0_1_10)))
 (let ((?x524 (* ?x489 l_0_1_8)))
 (let ((?x376 (+ (* (* 2.0 l_0_1_2) l_0_1_4) (* (* 2.0 l_0_1_3) l_0_1_5))))
 (let ((?x615 (- _a_2_)))
 (= (- (- (* ?x615 ?x376) ?x524) ?x527) 0.0)))))))
(assert
 (let ((?x432 (* l_0_1_12 l_0_1_12)))
 (let ((?x429 (* l_0_1_11 l_0_1_11)))
 (let ((?x426 (* l_0_1_10 l_0_1_10)))
 (let ((?x420 (* l_0_1_6 l_0_1_6)))
 (let ((?x421 (+ (+ (* l_0_1_4 l_0_1_4) (* l_0_1_5 l_0_1_5)) ?x420)))
 (let ((?x615 (- _a_2_)))
 (= (- (- (- (* ?x615 ?x421) ?x426) ?x429) ?x432) 0.0))))))))
(assert
 (>= l_0_1_1 0.0))
(assert
 (>= l_0_1_3 0.0))
(assert
 (>= l_0_1_6 0.0))
(assert
 (>= l_0_1_7 0.0))
(assert
 (>= l_0_1_9 0.0))
(assert
 (>= l_0_1_12 0.0))
(assert
 (>= l_0_1_13 0.0))
(assert
 (>= l_0_1_15 0.0))
(assert
 (>= l_0_1_18 0.0))
(assert
 (let ((?x668 (* l_0_2_13 l_0_2_13)))
 (let ((?x665 (+ (+ (* (* (- _a_0_) l_0_2_1) l_0_2_1) _a_0_) (* 1.0 _a_1_))))
 (let ((?x672 (- (- (+ ?x665 (* 1.0 _a_2_)) ?x668) (* (* 3.0 l_0_2_7) l_0_2_7))))
 (= ?x672 0.0)))))
(assert
 (let ((?x694 (* l_0_2_9 l_0_2_9)))
 (let ((?x692 (* l_0_2_8 l_0_2_8)))
 (let ((?x691 (+ (* (- _a_1_) (+ (* l_0_2_2 l_0_2_2) (* l_0_2_3 l_0_2_3))) _a_1_)))
 (= (+ (+ ?x691 ?x692) ?x694) 0.0)))))
(assert
 (let ((?x708 (* 2.0 l_0_2_10)))
 (let ((?x709 (* ?x708 l_0_2_7)))
 (let ((?x710 (+ (+ (* (* (* (- 2.0) _a_1_) l_0_2_1) l_0_2_4) (* 2.0 _a_1_)) ?x709)))
 (= ?x710 0.0)))))
(assert
 (let ((?x680 (* l_0_2_7 l_0_2_7)))
 (let ((?x725 (* l_0_2_15 l_0_2_15)))
 (let ((?x723 (* l_0_2_14 l_0_2_14)))
 (let ((?x706 (* 2.0 _a_1_)))
 (let ((?x721 (- (* (- _a_0_) (+ (* l_0_2_2 l_0_2_2) (* l_0_2_3 l_0_2_3))) (* (* _a_1_ l_0_2_1) l_0_2_1))))
 (let ((?x730 (- (+ (- (- (- ?x721 ?x706) ?x723) ?x725) ?x680) (* (* 3.0 l_0_2_8) l_0_2_8))))
 (= (- ?x730 (* (* 3.0 l_0_2_9) l_0_2_9)) 0.0))))))))
(assert
 (let ((?x680 (* l_0_2_7 l_0_2_7)))
 (let ((?x792 (* l_0_2_18 l_0_2_18)))
 (let ((?x790 (* l_0_2_17 l_0_2_17)))
 (let ((?x788 (* l_0_2_16 l_0_2_16)))
 (let ((?x777 (* 2.0 _a_2_)))
 (let ((?x770 (* l_0_2_6 l_0_2_6)))
 (let ((?x771 (+ (+ (* l_0_2_4 l_0_2_4) (* l_0_2_5 l_0_2_5)) ?x770)))
 (let ((?x256 (- _a_0_)))
 (let ((?x778 (+ (- (+ (* ?x256 ?x771) _a_1_) (* (* _a_2_ l_0_2_1) l_0_2_1)) ?x777)))
 (let ((?x784 (- (- ?x778 (* (* 3.0 l_0_2_10) l_0_2_10)) (* (* 3.0 l_0_2_11) l_0_2_11))))
 (let ((?x793 (- (- (- (- ?x784 (* (* 3.0 l_0_2_12) l_0_2_12)) ?x788) ?x790) ?x792)))
 (= (+ ?x793 ?x680) 0.0)))))))))))))
(assert
 (let ((?x843 (- (- (* (* (* (- 2.0) _a_0_) l_0_2_1) l_0_2_4) (* 2.0 _a_1_)) (* (* 6.0 l_0_2_10) l_0_2_7))))
 (= (- ?x843 (* (* 2.0 l_0_2_13) l_0_2_16)) 0.0)))
(assert
 (let ((?x694 (* l_0_2_9 l_0_2_9)))
 (let ((?x692 (* l_0_2_8 l_0_2_8)))
 (let ((?x821 (* l_0_2_12 l_0_2_12)))
 (let ((?x815 (* l_0_2_11 l_0_2_11)))
 (let ((?x809 (* l_0_2_10 l_0_2_10)))
 (let ((?x870 (* 4.0 _a_2_)))
 (let ((?x770 (* l_0_2_6 l_0_2_6)))
 (let ((?x771 (+ (+ (* l_0_2_4 l_0_2_4) (* l_0_2_5 l_0_2_5)) ?x770)))
 (let ((?x504 (- _a_1_)))
 (let ((?x868 (- (* ?x504 ?x771) (* _a_2_ (+ (* l_0_2_2 l_0_2_2) (* l_0_2_3 l_0_2_3))))))
 (= (+ (+ (+ (+ (+ (+ ?x868 ?x870) ?x809) ?x815) ?x821) ?x692) ?x694) 0.0))))))))))))
(assert
 (let ((?x910 (* (* 2.0 l_0_2_11) l_0_2_9)))
 (let ((?x708 (* 2.0 l_0_2_10)))
 (let ((?x907 (* ?x708 l_0_2_8)))
 (let ((?x870 (* 4.0 _a_2_)))
 (let ((?x904 (+ (* (* 2.0 l_0_2_2) l_0_2_4) (* (* 2.0 l_0_2_3) l_0_2_5))))
 (let ((?x615 (- _a_2_)))
 (= (+ (+ (+ (* ?x615 ?x904) ?x870) ?x907) ?x910) 0.0))))))))
(assert
 (let ((?x870 (* 4.0 _a_2_)))
 (let ((?x904 (+ (* (* 2.0 l_0_2_2) l_0_2_4) (* (* 2.0 l_0_2_3) l_0_2_5))))
 (let ((?x256 (- _a_0_)))
 (let ((?x934 (- (- (+ (* ?x256 ?x904) ?x870) (* (* 6.0 l_0_2_10) l_0_2_8)) (* (* 6.0 l_0_2_11) l_0_2_9))))
 (let ((?x940 (- (- ?x934 (* (* 2.0 l_0_2_14) l_0_2_16)) (* (* 2.0 l_0_2_15) l_0_2_17))))
 (= ?x940 0.0)))))))
(assert
 (let ((?x821 (* l_0_2_12 l_0_2_12)))
 (let ((?x815 (* l_0_2_11 l_0_2_11)))
 (let ((?x809 (* l_0_2_10 l_0_2_10)))
 (let ((?x770 (* l_0_2_6 l_0_2_6)))
 (let ((?x771 (+ (+ (* l_0_2_4 l_0_2_4) (* l_0_2_5 l_0_2_5)) ?x770)))
 (let ((?x615 (- _a_2_)))
 (= (+ (+ (+ (+ (* ?x615 ?x771) _a_2_) ?x809) ?x815) ?x821) 0.0))))))))
(assert
 (let ((?x989 (- (* (* (* (- 2.0) _a_0_) l_0_2_1) l_0_2_2) (* (* 2.0 l_0_2_13) l_0_2_14))))
 (= (- ?x989 (* (* 6.0 l_0_2_7) l_0_2_8)) 0.0)))
(assert
 (let ((?x1015 (* (* 2.0 l_0_2_7) l_0_2_8)))
 (= (+ (* (* (* (- 2.0) _a_1_) l_0_2_1) l_0_2_2) ?x1015) 0.0)))
(assert
 (let ((?x910 (* (* 2.0 l_0_2_11) l_0_2_9)))
 (let ((?x708 (* 2.0 l_0_2_10)))
 (let ((?x907 (* ?x708 l_0_2_8)))
 (let ((?x904 (+ (* (* 2.0 l_0_2_2) l_0_2_4) (* (* 2.0 l_0_2_3) l_0_2_5))))
 (let ((?x504 (- _a_1_)))
 (= (+ (+ (* ?x504 ?x904) ?x907) ?x910) 0.0)))))))
(assert
 (let ((?x1015 (* (* 2.0 l_0_2_7) l_0_2_8)))
 (= (+ (* (* (* (- 2.0) _a_2_) l_0_2_1) l_0_2_2) ?x1015) 0.0)))
(assert
 (let ((?x708 (* 2.0 l_0_2_10)))
 (let ((?x709 (* ?x708 l_0_2_7)))
 (= (+ (* (* (* (- 2.0) _a_2_) l_0_2_1) l_0_2_4) ?x709) 0.0))))
(assert
 (>= l_0_2_1 0.0))
(assert
 (>= l_0_2_3 0.0))
(assert
 (>= l_0_2_6 0.0))
(assert
 (>= l_0_2_7 0.0))
(assert
 (>= l_0_2_9 0.0))
(assert
 (>= l_0_2_12 0.0))
(assert
 (>= l_0_2_13 0.0))
(assert
 (>= l_0_2_15 0.0))
(assert
 (>= l_0_2_18 0.0))
(check-sat)
(get-model)